1 -1 2 0
1 -2 3 0
1 2 -1 0
1 -2 -4 0
1 5 3 0
1 5 6 0
1 -7 -8 0
1 7 9 0
1 -7 -10 0
1 7 4 0
1 -6 -11 0
1 12 13 0
1 12 -4 0
1 11 -8 0
1 -11 -14 0
1 15 -16 0
1 -8 -17 0
1 -10 -18 0
1 -19 5 0
1 20 16 0
1 -21 -22 0
1 -23 -24 0
1 -25 2 0
1 -25 23 0
1 -26 27 0
1 9 28 0
1 -29 30 0
1 -29 9 0
1 -29 23 0
1 31 32 0
1 31 -23 0
1 24 33 0
1 33 -34 0
1 -35 27 0
1 -13 36 0
1 -13 37 0
1 -38 39 0
1 -38 12 0
1 36 -38 0
1 28 40 0
1 28 41 0
1 28 -26 0
1 42 43 0
1 42 -27 0
1 27 26 0
1 -44 37 0
1 45 36 0
1 -45 -46 0
1 -45 44 0
1 45 47 0
1 -48 -19 0
1 -48 -49 0
1 48 -36 0
1 49 50 0
1 -51 -52 0
1 47 -45 0
1 47 -53 0
1 47 13 0
1 53 -54 0
1 53 43 0
1 -55 -40 0
1 -55 -10 0
1 56 57 0
1 -56 58 0
1 -59 -60 0
1 61 54 0
1 -61 62 0
1 -61 3 0
1 61 -63 0
1 61 55 0
1 -58 -56 0
1 -58 59 0
1 64 65 0
1 -64 66 0
1 -64 56 0
1 -64 -67 0
1 63 -57 0
1 63 68 0
1 63 61 0
1 69 63 0
1 -18 -65 0
1 18 70 0
1 -60 -62 0
1 71 72 0
1 71 65 0
1 -71 -73 0
1 74 75 0
1 -76 -57 0
1 -77 69 0
1 78 79 0
1 -78 80 0
1 72 -71 0
1 -73 75 0
1 -75 80 0
1 -75 -81 0
1 -82 -83 0
1 82 -84 0
1 -82 23 0
1 -84 -85 0
1 83 86 0
1 87 88 0
1 -87 33 0
1 -87 -89 0
1 -90 -39 0
1 -90 91 0
1 -90 13 0
1 90 -92 0
1 -39 38 0
1 92 -93 0
1 92 94 0
1 -95 50 0
1 95 -93 0
1 95 -90 0
1 96 39 0
1 -96 97 0
1 88 -98 0
1 -99 91 0
1 -100 101 0
1 -100 -27 0
1 100 92 0
1 -102 -103 0
1 -50 -95 0
1 -104 39 0
1 -104 -91 0
1 -104 99 0
1 -104 -90 0
1 -104 105 0
1 -104 106 0
1 91 99 0
1 91 105 0
1 107 100 0
1 43 36 0
1 43 -91 0
1 43 -27 0
1 -30 32 0
1 30 -108 0
1 -32 109 0
1 103 -40 0
1 -103 -110 0
1 34 -103 0
1 -34 43 0
1 -34 -106 0
1 -109 -47 0
1 52 41 0
1 -66 -111 0
1 112 113 0
1 112 114 0
1 112 109 0
1 112 -115 0
1 -116 117 0
1 -118 -119 0
1 -65 112 0
1 -65 -120 0
1 67 -60 0
1 67 64 0
1 114 18 0
1 -114 -120 0
1 -115 120 0
1 -120 -121 0
1 -120 122 0
1 -120 -123 0
1 -111 124 0
1 125 126 0
1 125 -18 0
1 125 -73 0
1 70 57 0
1 122 126 0
1 122 73 0
1 127 75 0
1 -127 120 0
1 -126 128 0
1 -129 127 0
1 -79 75 0
1 80 79 0
1 80 -130 0
1 -128 131 0
1 128 132 0
1 128 126 0
1 -133 -128 0
1 134 128 0
1 -131 134 0
1 -135 60 0
1 -136 -137 0
1 -136 -138 0
1 139 140 0
1 -137 -141 0
1 137 -139 0
1 -142 85 0
1 -142 -143 0
1 -144 -145 0
1 146 -93 0
1 146 -145 0
1 -143 -145 0
1 -147 -148 0
1 149 -150 0
1 86 -143 0
1 151 -145 0
1 151 -143 0
1 152 -145 0
1 -153 -154 0
1 -155 151 0
1 -156 97 0
1 -156 -157 0
1 154 -158 0
1 -154 159 0
1 160 -144 0
1 -157 -101 0
1 -157 88 0
1 157 -161 0
1 -101 162 0
1 101 88 0
1 97 -163 0
1 -164 155 0
1 165 153 0
1 -165 -157 0
1 -161 -157 0
1 -166 -95 0
1 -166 96 0
1 -167 166 0
1 -168 169 0
1 -168 -170 0
1 170 -163 0
1 -163 171 0
1 -163 -172 0
1 173 174 0
1 172 -104 0
1 -105 34 0
1 171 175 0
1 -110 176 0
1 110 -108 0
1 94 177 0
1 94 178 0
1 -94 -172 0
1 -94 -110 0
1 -94 -179 0
1 180 -178 0
1 180 -95 0
1 -180 -181 0
1 -169 -182 0
1 169 -183 0
1 -183 -182 0
1 183 -88 0
1 183 172 0
1 183 184 0
1 -117 -176 0
1 -178 185 0
1 -186 -187 0
1 176 -186 0
1 176 181 0
1 -175 176 0
1 175 -178 0
1 188 -189 0
1 -188 190 0
1 188 171 0
1 188 181 0
1 -191 -192 0
1 -113 112 0
1 113 193 0
1 113 118 0
1 194 -111 0
1 194 -193 0
1 195 -194 0
1 195 -196 0
1 185 113 0
1 187 -194 0
1 -187 195 0
1 -121 -79 0
1 -121 -189 0
1 -121 197 0
1 121 111 0
1 123 -121 0
1 -123 -198 0
1 -123 119 0
1 199 -185 0
1 -199 200 0
1 -201 -196 0
1 202 203 0
1 197 -121 0
1 197 204 0
1 -119 -194 0
1 -205 -206 0
1 -205 207 0
1 208 202 0
1 -208 -200 0
1 -203 135 0
1 203 209 0
1 -203 210 0
1 203 211 0
1 -203 -212 0
1 207 203 0
1 212 203 0
1 -212 -208 0
1 200 -111 0
1 -200 213 0
1 209 -208 0
1 -214 -135 0
1 214 -131 0
1 -214 -212 0
1 141 215 0
1 -141 130 0
1 216 212 0
1 -217 207 0
1 -217 -218 0
1 -215 219 0
1 -215 -217 0
1 215 -203 0
1 210 -220 0
1 210 208 0
1 221 -210 0
1 -221 -208 0
1 222 215 0
1 222 223 0
1 224 -225 0
1 -226 -219 0
1 -226 131 0
1 226 227 0
1 -226 228 0
1 229 -230 0
1 -231 226 0
1 232 -226 0
1 -232 -233 0
1 -234 132 0
1 -140 233 0
1 -140 -235 0
1 -233 236 0
1 233 -237 0
1 -238 146 0
1 239 240 0
1 -241 242 0
1 243 244 0
1 -245 -246 0
1 247 248 0
1 247 249 0
1 -250 -251 0
1 250 147 0
1 250 252 0
1 -250 247 0
1 251 253 0
1 -249 254 0
1 -253 159 0
1 -255 158 0
1 255 252 0
1 -158 256 0
1 -158 257 0
1 248 159 0
1 252 -258 0
1 252 250 0
1 -259 -250 0
1 -260 250 0
1 -261 262 0
1 258 263 0
1 -258 161 0
1 -264 -265 0
1 -265 266 0
1 -265 267 0
1 265 268 0
1 -269 -173 0
1 -174 270 0
1 -271 272 0
1 -273 274 0
1 -273 110 0
1 273 275 0
1 -270 276 0
1 -270 -154 0
1 270 277 0
1 -278 270 0
1 279 -280 0
1 -184 -163 0
1 184 173 0
1 -182 183 0
1 -280 -281 0
1 280 192 0
1 280 184 0
1 274 177 0
1 -274 273 0
1 282 273 0
1 -177 283 0
1 -177 284 0
1 -177 -169 0
1 -192 285 0
1 -192 180 0
1 192 280 0
1 -190 286 0
1 -287 283 0
1 -287 -286 0
1 -288 -189 0
1 -288 177 0
1 288 -182 0
1 288 -289 0
1 -285 189 0
1 -285 163 0
1 285 -287 0
1 284 -290 0
1 -283 190 0
1 283 -177 0
1 283 -291 0
1 283 292 0
1 -283 287 0
1 -189 193 0
1 -293 294 0
1 -293 -123 0
1 -295 -296 0
1 294 297 0
1 297 -298 0
1 -297 179 0
1 -299 197 0
1 -299 300 0
1 -301 -298 0
1 -213 197 0
1 -213 -302 0
1 -303 -211 0
1 303 -200 0
1 -303 -300 0
1 304 216 0
1 304 -305 0
1 -306 -298 0
1 -307 306 0
1 307 -308 0
1 309 310 0
1 311 -312 0
1 311 209 0
1 313 -300 0
1 313 209 0
1 -314 300 0
1 225 -315 0
1 -225 -300 0
1 -316 314 0
1 -312 -220 0
1 204 -317 0
1 204 -311 0
1 -204 318 0
1 -305 -204 0
1 -220 221 0
1 -220 -229 0
1 220 316 0
1 -220 319 0
1 -320 -215 0
1 -320 -312 0
1 321 312 0
1 -322 323 0
1 -322 321 0
1 322 319 0
1 -322 228 0
1 319 -320 0
1 -319 -324 0
1 315 -320 0
1 315 200 0
1 315 -325 0
1 315 -326 0
1 -326 225 0
1 -326 321 0
1 227 327 0
1 227 -229 0
1 -227 226 0
1 -227 328 0
1 228 227 0
1 228 -140 0
1 324 -329 0
1 -324 -330 0
1 324 -140 0
1 328 -331 0
1 327 332 0
1 327 -333 0
1 327 324 0
1 334 -323 0
1 -334 324 0
1 -329 335 0
1 333 -336 0
1 -333 -233 0
1 337 -338 0
1 337 339 0
1 339 -338 0
1 -336 340 0
1 -336 -341 0
1 -342 333 0
1 338 -341 0
1 343 344 0
1 -343 345 0
1 346 347 0
1 -347 -348 0
1 349 -350 0
1 -349 -348 0
1 -351 352 0
1 351 -353 0
1 354 -355 0
1 356 -357 0
1 -355 358 0
1 353 359 0
1 -360 -148 0
1 -361 -245 0
1 361 -357 0
1 362 -363 0
1 -362 -364 0
1 365 366 0
1 367 368 0
1 -367 369 0
1 -367 356 0
1 367 -360 0
1 357 -354 0
1 370 368 0
1 -370 371 0
1 370 362 0
1 -372 -367 0
1 -373 239 0
1 -373 -366 0
1 -373 -241 0
1 254 374 0
1 254 375 0
1 -254 376 0
1 377 -374 0
1 364 377 0
1 263 -258 0
1 -378 379 0
1 -378 260 0
1 -380 -381 0
1 374 262 0
1 -374 -254 0
1 -381 268 0
1 -376 -380 0
1 376 -377 0
1 -376 262 0
1 375 -254 0
1 268 -259 0
1 -382 383 0
1 -267 264 0
1 267 -384 0
1 267 385 0
1 386 387 0
1 386 -267 0
1 -388 -267 0
1 -388 -379 0
1 379 -389 0
1 -266 -385 0
1 -266 257 0
1 390 391 0
1 -390 392 0
1 -387 -393 0
1 -394 -387 0
1 394 395 0
1 391 -390 0
1 393 396 0
1 -392 266 0
1 392 390 0
1 -276 -397 0
1 -398 -192 0
1 -399 400 0
1 399 -401 0
1 399 -277 0
1 -401 281 0
1 -401 292 0
1 397 -281 0
1 397 257 0
1 -395 -402 0
1 -395 -403 0
1 -395 404 0
1 281 274 0
1 281 397 0
1 -405 -406 0
1 -405 -272 0
1 292 407 0
1 277 -292 0
1 -277 -408 0
1 -409 -410 0
1 409 403 0
1 411 -285 0
1 412 -403 0
1 412 -411 0
1 413 -414 0
1 -413 415 0
1 413 296 0
1 -416 -417 0
1 -418 -419 0
1 420 418 0
1 -417 421 0
1 -417 422 0
1 423 424 0
1 302 -420 0
1 425 415 0
1 426 415 0
1 -426 -427 0
1 426 418 0
1 -428 -429 0
1 428 419 0
1 -428 413 0
1 -414 419 0
1 -414 -430 0
1 431 432 0
1 433 -434 0
1 -433 -435 0
1 433 -436 0
1 -437 -432 0
1 438 225 0
1 -438 -439 0
1 -432 437 0
1 -432 440 0
1 441 -426 0
1 -441 -442 0
1 441 -437 0
1 -436 -443 0
1 436 430 0
1 -310 -429 0
1 -310 305 0
1 -444 -445 0
1 -444 446 0
1 -444 -447 0
1 444 448 0
1 444 305 0
1 440 449 0
1 -440 445 0
1 440 -447 0
1 -450 442 0
1 448 301 0
1 -448 -437 0
1 -448 -451 0
1 -448 -440 0
1 447 449 0
1 -447 438 0
1 447 -452 0
1 -325 -227 0
1 -325 -443 0
1 453 445 0
1 -453 324 0
1 -453 454 0
1 -446 -444 0
1 -454 -446 0
1 -454 -455 0
1 -445 456 0
1 -457 458 0
1 457 455 0
1 457 459 0
1 -323 326 0
1 460 -461 0
1 460 334 0
1 460 -235 0
1 460 319 0
1 462 -446 0
1 462 -463 0
1 462 454 0
1 335 462 0
1 -464 462 0
1 -464 -465 0
1 -466 -335 0
1 -317 453 0
1 -317 465 0
1 331 -464 0
1 331 -467 0
1 331 342 0
1 -468 -327 0
1 468 -331 0
1 -468 -334 0
1 -469 -470 0
1 -469 -342 0
1 469 471 0
1 -471 319 0
1 -471 -472 0
1 -473 474 0
1 473 -468 0
1 -341 475 0
1 -476 463 0
1 476 345 0
1 -477 -478 0
1 475 -479 0
1 475 480 0
1 481 -480 0
1 481 -476 0
1 -481 -482 0
1 -348 -475 0
1 483 -345 0
1 -484 485 0
1 -486 -487 0
1 486 488 0
1 -486 476 0
1 -489 -487 0
1 485 490 0
1 -491 -492 0
1 492 486 0
1 -488 -493 0
1 -493 -494 0
1 -494 -347 0
1 -494 -493 0
1 -495 484 0
1 -496 -358 0
1 496 -497 0
1 -498 -354 0
1 -499 -500 0
1 -499 501 0
1 -497 -498 0
1 -497 -499 0
1 -497 -502 0
1 -501 -503 0
1 -501 -499 0
1 503 504 0
1 503 -505 0
1 -503 -353 0
1 -506 497 0
1 -500 359 0
1 -507 -508 0
1 507 500 0
1 -505 509 0
1 -510 -508 0
1 -510 505 0
1 511 -500 0
1 -511 507 0
1 -511 -512 0
1 -513 -377 0
1 514 -515 0
1 512 -516 0
1 512 -513 0
1 -512 -517 0
1 -518 513 0
1 -518 506 0
1 518 519 0
1 -517 -370 0
1 517 -520 0
1 -517 -367 0
1 368 -520 0
1 -521 -514 0
1 522 523 0
1 -522 -524 0
1 -525 526 0
1 -525 527 0
1 -526 352 0
1 526 -521 0
1 526 -525 0
1 -526 528 0
1 -529 -530 0
1 -383 531 0
1 383 532 0
1 383 -524 0
1 -384 -267 0
1 531 533 0
1 -532 534 0
1 532 -528 0
1 -535 383 0
1 535 -521 0
1 535 -532 0
1 536 524 0
1 389 537 0
1 389 387 0
1 -389 534 0
1 -538 388 0
1 -538 389 0
1 -539 396 0
1 -539 -540 0
1 541 -542 0
1 -541 -528 0
1 543 389 0
1 544 364 0
1 545 537 0
1 540 -539 0
1 -396 -546 0
1 547 -548 0
1 -547 -549 0
1 550 -545 0
1 -537 -551 0
1 -537 542 0
1 -551 -538 0
1 402 546 0
1 402 -391 0
1 402 395 0
1 -552 553 0
1 554 292 0
1 -554 395 0
1 555 -556 0
1 557 -558 0
1 410 -403 0
1 -403 553 0
1 -403 -400 0
1 403 -277 0
1 -403 -559 0
1 -403 -395 0
1 -403 397 0
1 560 561 0
1 560 -409 0
1 562 -559 0
1 -553 563 0
1 -564 563 0
1 422 407 0
1 421 -565 0
1 -421 408 0
1 -421 566 0
1 567 -408 0
1 -567 559 0
1 -567 566 0
1 565 -566 0
1 565 568 0
1 -569 -570 0
1 -569 -563 0
1 -569 421 0
1 571 570 0
1 -571 395 0
1 -424 -572 0
1 573 -423 0
1 573 -574 0
1 -575 -408 0
1 -439 -574 0
1 439 576 0
1 -574 -439 0
1 -574 -430 0
1 -577 -578 0
1 579 -580 0
1 579 567 0
1 579 581 0
1 430 -576 0
1 430 -289 0
1 578 582 0
1 578 583 0
1 -582 -436 0
1 -576 439 0
1 576 584 0
1 -583 -585 0
1 -443 436 0
1 586 -587 0
1 -588 -449 0
1 588 589 0
1 -587 -590 0
1 591 -451 0
1 -592 -588 0
1 451 -449 0
1 -451 -585 0
1 -593 -591 0
1 593 594 0
1 -459 595 0
1 596 593 0
1 -594 597 0
1 594 -598 0
1 -594 452 0
1 -589 456 0
1 -589 -599 0
1 589 459 0
1 -599 588 0
1 458 600 0
1 -458 331 0
1 458 594 0
1 455 457 0
1 598 -601 0
1 -598 -317 0
1 598 -602 0
1 -602 603 0
1 602 604 0
1 -600 605 0
1 600 -606 0
1 -607 449 0
1 607 -597 0
1 607 458 0
1 -595 447 0
1 605 464 0
1 608 -467 0
1 -608 -603 0
1 -606 609 0
1 -609 610 0
1 -609 -611 0
1 601 612 0
1 -613 -614 0
1 613 -481 0
1 -613 615 0
1 474 471 0
1 -614 -616 0
1 -614 -474 0
1 -617 618 0
1 -619 -461 0
1 619 -620 0
1 -619 -482 0
1 -480 621 0
1 -622 623 0
1 622 -624 0
1 622 -625 0
1 -625 623 0
1 625 626 0
1 624 -627 0
1 -624 -628 0
1 629 630 0
1 -629 473 0
1 -629 631 0
1 -487 -479 0
1 -487 -490 0
1 -632 495 0
1 632 633 0
1 -634 -635 0
1 -634 -625 0
1 478 -477 0
1 636 -481 0
1 637 638 0
1 637 -633 0
1 -639 -640 0
1 639 -633 0
1 639 -641 0
1 633 -642 0
1 635 642 0
1 635 643 0
1 -644 645 0
1 -646 -634 0
1 -646 -639 0
1 643 633 0
1 643 -647 0
1 642 -648 0
1 640 649 0
1 640 -650 0
1 509 517 0
1 508 500 0
1 651 -523 0
1 523 -522 0
1 -523 652 0
1 -523 653 0
1 523 -654 0
1 -523 -655 0
1 656 657 0
1 658 -659 0
1 660 -661 0
1 519 -514 0
1 519 -512 0
1 -530 -654 0
1 -657 -654 0
1 657 662 0
1 -662 -663 0
1 -662 654 0
1 -662 528 0
1 664 -500 0
1 664 662 0
1 -653 -657 0
1 -665 -666 0
1 665 -525 0
1 -527 535 0
1 -667 -516 0
1 666 -668 0
1 -666 665 0
1 -666 -662 0
1 -669 -666 0
1 670 -516 0
1 -670 671 0
1 672 531 0
1 672 670 0
1 672 673 0
1 674 663 0
1 -675 -674 0
1 676 677 0
1 676 -542 0
1 678 679 0
1 678 -667 0
1 680 537 0
1 680 675 0
1 -542 -681 0
1 -682 679 0
1 682 -676 0
1 -683 -551 0
1 -683 681 0
1 683 684 0
1 -681 -682 0
1 681 685 0
1 681 -686 0
1 687 683 0
1 -688 -677 0
1 688 -532 0
1 -689 -690 0
1 -689 688 0
1 -691 -410 0
1 -691 537 0
1 692 -547 0
1 692 -693 0
1 -685 548 0
1 694 556 0
1 693 682 0
1 -693 -695 0
1 -693 683 0
1 -684 -696 0
1 696 -697 0
1 -696 698 0
1 -556 548 0
1 -548 -699 0
1 -548 700 0
1 -548 701 0
1 -548 -702 0
1 -703 537 0
1 -703 701 0
1 -703 704 0
1 -705 695 0
1 -705 706 0
1 563 553 0
1 563 -558 0
1 -563 572 0
1 707 548 0
1 -707 -558 0
1 708 -707 0
1 -708 -558 0
1 558 -699 0
1 558 572 0
1 558 709 0
1 -710 711 0
1 710 709 0
1 711 -701 0
1 711 572 0
1 -711 -712 0
1 -581 -579 0
1 -581 713 0
1 -570 714 0
1 -570 715 0
1 570 -581 0
1 715 -553 0
1 715 -716 0
1 -715 -717 0
1 -718 581 0
1 -718 -719 0
1 713 -720 0
1 720 570 0
1 721 722 0
1 723 -583 0
1 -723 -715 0
1 723 -568 0
1 724 -725 0
1 717 726 0
1 -568 -724 0
1 727 -584 0
1 727 723 0
1 -722 728 0
1 -722 -729 0
1 722 -730 0
1 -731 723 0
1 -584 -716 0
1 585 580 0
1 -585 -732 0
1 -585 576 0
1 733 734 0
1 -735 -736 0
1 -735 -585 0
1 -726 577 0
1 726 -724 0
1 -725 -733 0
1 580 724 0
1 -580 -725 0
1 -580 -730 0
1 -590 737 0
1 -590 -735 0
1 736 735 0
1 -736 455 0
1 -738 -739 0
1 -738 -740 0
1 -604 726 0
1 604 589 0
1 -741 742 0
1 -743 -733 0
1 -743 -744 0
1 743 736 0
1 -745 -746 0
1 737 -733 0
1 597 739 0
1 -597 747 0
1 597 -595 0
1 -597 -741 0
1 -597 -740 0
1 748 597 0
1 748 -749 0
1 -747 597 0
1 -747 750 0
1 -747 751 0
1 740 739 0
1 -740 -744 0
1 -615 -749 0
1 752 -747 0
1 752 753 0
1 754 755 0
1 -756 -757 0
1 -758 -620 0
1 759 -744 0
1 760 -752 0
1 -620 761 0
1 -620 -619 0
1 -610 762 0
1 -763 -764 0
1 618 -755 0
1 618 -612 0
1 618 -617 0
1 -755 765 0
1 -755 766 0
1 -767 -768 0
1 -767 -755 0
1 753 618 0
1 -766 769 0
1 -765 -487 0
1 -765 -755 0
1 -765 -624 0
1 628 -632 0
1 628 -767 0
1 628 -770 0
1 630 770 0
1 -612 -765 0
1 -612 628 0
1 -771 772 0
1 627 -773 0
1 -774 -636 0
1 -774 -611 0
1 -774 -770 0
1 -775 776 0
1 775 -777 0
1 777 778 0
1 -773 -648 0
1 779 -775 0
1 -770 -780 0
1 -781 -479 0
1 781 782 0
1 -648 -642 0
1 -648 782 0
1 783 644 0
1 784 648 0
1 -784 -781 0
1 631 784 0
1 -671 664 0
1 673 672 0
1 -785 -674 0
1 785 -786 0
1 785 787 0
1 787 679 0
1 -787 -788 0
1 -787 -789 0
1 790 661 0
1 661 -673 0
1 668 678 0
1 679 -678 0
1 679 -791 0
1 679 -792 0
1 792 -793 0
1 -786 794 0
1 786 795 0
1 -786 793 0
1 786 796 0
1 793 -789 0
1 797 -668 0
1 690 692 0
1 798 -688 0
1 799 -798 0
1 -800 -677 0
1 -800 801 0
1 -802 -803 0
1 -802 800 0
1 804 -805 0
1 -698 684 0
1 -698 806 0
1 698 -807 0
1 -698 808 0
1 -807 809 0
1 807 -699 0
1 807 -799 0
1 -805 804 0
1 -810 798 0
1 810 -676 0
1 -810 695 0
1 811 -812 0
1 -811 -804 0
1 811 698 0
1 -695 810 0
1 -695 -705 0
1 -704 -806 0
1 -704 -813 0
1 -814 -707 0
1 814 805 0
1 -815 806 0
1 -806 -816 0
1 -806 -814 0
1 806 689 0
1 714 -700 0
1 -817 818 0
1 -817 -686 0
1 819 -820 0
1 -819 -710 0
1 -819 -821 0
1 819 697 0
1 -819 -813 0
1 813 714 0
1 813 -822 0
1 823 817 0
1 823 704 0
1 824 825 0
1 709 826 0
1 -709 -823 0
1 822 -827 0
1 -828 -713 0
1 -828 822 0
1 828 -706 0
1 -820 -829 0
1 820 830 0
1 831 -828 0
1 -706 -825 0
1 -706 -832 0
1 706 -833 0
1 716 584 0
1 716 -834 0
1 719 835 0
1 -836 -837 0
1 836 -731 0
1 -837 -838 0
1 837 839 0
1 -840 -730 0
1 -840 837 0
1 834 -841 0
1 834 730 0
1 -827 -842 0
1 -827 -843 0
1 827 -837 0
1 -844 -580 0
1 -845 846 0
1 -847 580 0
1 -847 -845 0
1 847 -834 0
1 -838 -848 0
1 -838 -849 0
1 838 -850 0
1 838 -851 0
1 -851 -838 0
1 -852 -837 0
1 -839 -842 0
1 -839 845 0
1 -839 -720 0
1 853 -580 0
1 850 -580 0
1 850 841 0
1 -849 -854 0
1 849 855 0
1 849 -856 0
1 -849 857 0
1 -849 851 0
1 -856 846 0
1 856 -847 0
1 -846 853 0
1 846 850 0
1 -855 -722 0
1 -855 -848 0
1 -858 -743 0
1 859 860 0
1 859 858 0
1 861 -860 0
1 861 862 0
1 861 863 0
1 864 -865 0
1 -863 -866 0
1 863 -750 0
1 -863 -859 0
1 -863 858 0
1 -750 854 0
1 -750 742 0
1 764 -760 0
1 -764 -867 0
1 -764 868 0
1 -869 -862 0
1 869 870 0
1 742 -861 0
1 862 -871 0
1 -867 871 0
1 757 872 0
1 757 -870 0
1 -873 -760 0
1 -874 -875 0
1 -874 753 0
1 -876 -877 0
1 876 878 0
1 879 -869 0
1 -879 -739 0
1 772 880 0
1 768 -772 0
1 -768 753 0
1 881 880 0
1 881 -882 0
1 -875 768 0
1 875 -881 0
1 883 -884 0
1 885 -874 0
1 -880 -874 0
1 -884 -770 0
1 -886 771 0
1 886 -611 0
1 -886 -878 0
1 780 -887 0
1 -888 -770 0
1 889 884 0
1 882 -888 0
1 -887 -881 0
1 -887 -888 0
1 -796 786 0
1 -890 -802 0
1 891 892 0
1 -891 -893 0
1 -894 -801 0
1 -893 -895 0
1 896 -897 0
1 -895 898 0
1 895 899 0
1 -895 900 0
1 901 -902 0
1 901 -891 0
1 -901 795 0
1 901 818 0
1 903 791 0
1 -904 -891 0
1 -904 -905 0
1 -906 811 0
1 -816 -811 0
1 816 795 0
1 816 906 0
1 -816 -815 0
1 -907 806 0
1 908 -906 0
1 -900 -902 0
1 900 -906 0
1 -898 909 0
1 -898 -910 0
1 -911 912 0
1 911 -697 0
1 911 913 0
1 911 -815 0
1 826 902 0
1 826 -812 0
1 -826 912 0
1 -826 -821 0
1 -826 697 0
1 -826 914 0
1 -915 -916 0
1 -917 908 0
1 -913 -915 0
1 914 -907 0
1 825 835 0
1 -835 -918 0
1 835 825 0
1 -835 -697 0
1 -919 831 0
1 -919 833 0
1 833 831 0
1 833 -920 0
1 -921 922 0
1 -923 -924 0
1 -916 925 0
1 829 831 0
1 -922 -921 0
1 926 833 0
1 927 -926 0
1 -927 829 0
1 928 829 0
1 -928 919 0
1 928 833 0
1 920 929 0
1 842 926 0
1 841 -839 0
1 -930 931 0
1 -932 -820 0
1 -932 -841 0
1 -932 933 0
1 931 -841 0
1 832 922 0
1 -832 -934 0
1 832 935 0
1 -848 -936 0
1 937 938 0
1 939 934 0
1 939 933 0
1 -940 941 0
1 942 940 0
1 868 943 0
1 -868 -857 0
1 -944 -945 0
1 -946 947 0
1 -946 -942 0
1 -948 -949 0
1 -948 -950 0
1 -872 854 0
1 866 -951 0
1 866 -863 0
1 950 946 0
1 950 945 0
1 950 -952 0
1 949 -877 0
1 -952 -856 0
1 -952 -950 0
1 -953 954 0
1 -945 -950 0
1 -955 944 0
1 955 956 0
1 -957 -958 0
1 959 -960 0
1 961 -879 0
1 962 954 0
1 963 -964 0
1 -963 -956 0
1 -965 -966 0
1 965 870 0
1 878 751 0
1 -967 885 0
1 967 966 0
1 967 968 0
1 -969 742 0
1 -966 951 0
1 966 961 0
1 910 902 0
1 910 -897 0
1 970 -898 0
1 971 972 0
1 -973 -893 0
1 -897 974 0
1 975 976 0
1 972 977 0
1 -976 978 0
1 -979 -978 0
1 -980 -981 0
1 980 -982 0
1 983 -912 0
1 -983 -923 0
1 984 909 0
1 -984 -935 0
1 985 925 0
1 985 -929 0
1 985 983 0
1 986 987 0
1 986 988 0
1 986 985 0
1 -977 989 0
1 -977 -981 0
1 -909 -990 0
1 -925 989 0
1 929 986 0
1 991 992 0
1 -993 994 0
1 -993 914 0
1 -995 990 0
1 995 -996 0
1 995 997 0
1 -992 -998 0
1 992 832 0
1 -999 -931 0
1 999 1000 0
1 -1001 931 0
1 1001 -1002 0
1 1001 -1003 0
1 1000 -1002 0
1 1000 -929 0
1 -1000 1004 0
1 -1002 -992 0
1 1002 1000 0
1 -924 -1005 0
1 924 -999 0
1 998 -992 0
1 -998 -1001 0
1 -1004 -1006 0
1 934 939 0
1 -938 -1007 0
1 938 1008 0
1 -938 -939 0
1 -938 868 0
1 938 -1009 0
1 -938 -1010 0
1 1007 -939 0
1 1011 -934 0
1 1012 1001 0
1 -1010 1013 0
1 1010 934 0
1 -1010 -938 0
1 1010 1001 0
1 1003 -1005 0
1 1003 -1014 0
1 -1015 1011 0
1 1015 -1016 0
1 -1017 1018 0
1 -1019 -949 0
1 1019 -1020 0
1 -1019 -1021 0
1 1016 -1015 0
1 1016 1017 0
1 -1022 -1013 0
1 -947 -1013 0
1 -947 -1008 0
1 -947 1020 0
1 1023 -945 0
1 1024 -1016 0
1 1018 -1019 0
1 1018 956 0
1 -1020 -1024 0
1 -1025 -937 0
1 -1025 1023 0
1 1025 -1026 0
1 956 945 0
1 -956 1027 0
1 964 -963 0
1 964 -1028 0
1 1029 964 0
1 1030 -1031 0
1 -1032 -1031 0
1 -978 909 0
1 978 -977 0
1 -978 -1033 0
1 -1034 974 0
1 1034 1033 0
1 -1035 929 0
1 1036 -1033 0
1 974 -1037 0
1 -1038 -989 0
1 -1039 -909 0
1 1039 1036 0
1 -1039 -993 0
1 -1040 999 0
1 994 993 0
1 994 -1033 0
1 -1041 -1034 0
1 -1041 979 0
1 -1042 -1043 0
1 -1044 1040 0
1 -1044 980 0
1 1006 1041 0
1 1006 993 0
1 1045 -1046 0
1 -1045 1047 0
1 -1045 -924 0
1 1009 998 0
1 1046 -1048 0
1 -1049 -996 0
1 1049 1050 0
1 -1048 -1000 0
1 -1051 1052 0
1 -1051 998 0
1 1051 -1003 0
1 1051 -1010 0
1 1053 -1054 0
1 -1055 1053 0
1 1056 -1055 0
1 1057 1052 0
1 1057 1048 0
1 -1052 -1051 0
1 -1058 1059 0
1 -1060 -1061 0
1 1060 1062 0
1 1063 1064 0
1 1063 -1060 0
1 -1063 1022 0
1 1054 -1065 0
1 -1059 -1063 0
1 -1059 -1066 0
1 -1061 1013 0
1 -1065 1067 0
1 1065 -1068 0
1 -1065 -1069 0
1 1065 1025 0
1 -1065 -1008 0
1 1067 -1068 0
1 -1067 1008 0
1 -1070 -1064 0
1 -1070 1071 0
1 1072 -1054 0
1 1073 1011 0
1 1068 -1067 0
1 1068 1065 0
1 -1068 -1072 0
1 -1014 -1068 0
1 1014 1063 0
1 -1014 1060 0
1 -1074 1075 0
1 1074 -1076 0
1 1077 1075 0
1 1077 -1055 0
1 1076 1062 0
1 1076 -1074 0
1 -1050 -1078 0
1 1050 1079 0
1 -1062 -1080 0
1 1081 1076 0
1 1082 1081 0
1 -1082 -1083 0
1 -1084 -1074 0
1 1085 1062 0
1 1079 1044 0
1 -1083 -1086 0
1 -1087 1056 0
1 1088 1089 0
1 1089 -1090 0
1 1091 1083 0
1 -1091 -1062 0
1 1080 -1062 0
